\ Model runway_allocation
\ LP format - for model browsing. Use MPS format to capture full model detail.
Minimize
  808.356 x0_0_0 + 889.1916000000001 x0_0_60 + 970.0272 x0_0_120
   + 1050.8628 x0_0_180 + 1131.6984 x0_0_240 + 1212.534 x0_0_300
   + 1293.3696 x0_0_360 + 1374.2052 x0_0_420 + 1455.040800000001 x0_0_480
   + 1535.876400000001 x0_0_540 + 1495.967 x0_1_0 + 1645.5637 x0_1_60
   + 1795.1604 x0_1_120 + 1944.7571 x0_1_180 + 2094.3538 x0_1_240
   + 2243.9505 x0_1_300 + 2393.5472 x0_1_360 + 2543.143900000001 x0_1_420
   + 2692.740600000001 x0_1_480 + 2842.337300000001 x0_1_540
   + 1602.731 x0_2_0 + 1763.0041 x0_2_60 + 1923.2772 x0_2_120
   + 2083.5503 x0_2_180 + 2243.8234 x0_2_240 + 2404.096500000001 x0_2_300
   + 2564.3696 x0_2_360 + 2724.642700000001 x0_2_420
   + 2884.915800000001 x0_2_480 + 3045.188900000001 x0_2_540
   + 901.139 x1_0_0 + 991.2529000000001 x1_0_60 + 1081.3668 x1_0_120
   + 1171.4807 x1_0_180 + 1261.5946 x1_0_240 + 1351.7085 x1_0_300
   + 1441.8224 x1_0_360 + 1531.9363 x1_0_420 + 1622.0502 x1_0_480
   + 1712.164100000001 x1_0_540 + 1321.84 x1_1_0 + 1454.024 x1_1_60
   + 1586.208 x1_1_120 + 1718.392 x1_1_180 + 1850.576 x1_1_240
   + 1982.76 x1_1_300 + 2114.944 x1_1_360 + 2247.128000000001 x1_1_420
   + 2379.312000000001 x1_1_480 + 2511.496000000001 x1_1_540
   + 987.567 x1_2_0 + 1086.3237 x1_2_60 + 1185.0804 x1_2_120
   + 1283.8371 x1_2_180 + 1382.5938 x1_2_240 + 1481.3505 x1_2_300
   + 1580.1072 x1_2_360 + 1678.863900000001 x1_2_420
   + 1777.620600000001 x1_2_480 + 1876.377300000001 x1_2_540
   + 808.356 x2_0_0 + 889.1916000000001 x2_0_60 + 970.0272 x2_0_120
   + 1050.8628 x2_0_180 + 1131.6984 x2_0_240 + 1212.534 x2_0_300
   + 1293.3696 x2_0_360 + 1374.2052 x2_0_420 + 1455.040800000001 x2_0_480
   + 1535.876400000001 x2_0_540 + 1495.967 x2_1_0 + 1645.5637 x2_1_60
   + 1795.1604 x2_1_120 + 1944.7571 x2_1_180 + 2094.3538 x2_1_240
   + 2243.9505 x2_1_300 + 2393.5472 x2_1_360 + 2543.143900000001 x2_1_420
   + 2692.740600000001 x2_1_480 + 2842.337300000001 x2_1_540
   + 1602.731 x2_2_0 + 1763.0041 x2_2_60 + 1923.2772 x2_2_120
   + 2083.5503 x2_2_180 + 2243.8234 x2_2_240 + 2404.096500000001 x2_2_300
   + 2564.3696 x2_2_360 + 2724.642700000001 x2_2_420
   + 2884.915800000001 x2_2_480 + 3045.188900000001 x2_2_540
   + 1495.967 x3_0_0 + 1645.5637 x3_0_60 + 1795.1604 x3_0_120
   + 1944.7571 x3_0_180 + 2094.3538 x3_0_240 + 2243.9505 x3_0_300
   + 2393.5472 x3_0_360 + 2543.143900000001 x3_0_420
   + 2692.740600000001 x3_0_480 + 2842.337300000001 x3_0_540
   + 639.313 x3_1_0 + 703.2443000000001 x3_1_60 + 767.1756 x3_1_120
   + 831.1069000000002 x3_1_180 + 895.0382000000002 x3_1_240
   + 958.9695000000003 x3_1_300 + 1022.9008 x3_1_360 + 1086.8321 x3_1_420
   + 1150.763400000001 x3_1_480 + 1214.6947 x3_1_540 + 973.586 x3_2_0
   + 1070.9446 x3_2_60 + 1168.3032 x3_2_120 + 1265.6618 x3_2_180
   + 1363.0204 x3_2_240 + 1460.379 x3_2_300 + 1557.7376 x3_2_360
   + 1655.0962 x3_2_420 + 1752.454800000001 x3_2_480
   + 1849.813400000001 x3_2_540 + 1495.967 x4_0_0 + 1645.5637 x4_0_60
   + 1795.1604 x4_0_120 + 1944.7571 x4_0_180 + 2094.3538 x4_0_240
   + 2243.9505 x4_0_300 + 2393.5472 x4_0_360 + 2543.143900000001 x4_0_420
   + 2692.740600000001 x4_0_480 + 2842.337300000001 x4_0_540
   + 639.313 x4_1_0 + 703.2443000000001 x4_1_60 + 767.1756 x4_1_120
   + 831.1069000000002 x4_1_180 + 895.0382000000002 x4_1_240
   + 958.9695000000003 x4_1_300 + 1022.9008 x4_1_360 + 1086.8321 x4_1_420
   + 1150.763400000001 x4_1_480 + 1214.6947 x4_1_540 + 973.586 x4_2_0
   + 1070.9446 x4_2_60 + 1168.3032 x4_2_120 + 1265.6618 x4_2_180
   + 1363.0204 x4_2_240 + 1460.379 x4_2_300 + 1557.7376 x4_2_360
   + 1655.0962 x4_2_420 + 1752.454800000001 x4_2_480
   + 1849.813400000001 x4_2_540 + 901.139 x5_0_0
   + 991.2529000000001 x5_0_60 + 1081.3668 x5_0_120 + 1171.4807 x5_0_180
   + 1261.5946 x5_0_240 + 1351.7085 x5_0_300 + 1441.8224 x5_0_360
   + 1531.9363 x5_0_420 + 1622.0502 x5_0_480 + 1712.164100000001 x5_0_540
   + 1321.84 x5_1_0 + 1454.024 x5_1_60 + 1586.208 x5_1_120
   + 1718.392 x5_1_180 + 1850.576 x5_1_240 + 1982.76 x5_1_300
   + 2114.944 x5_1_360 + 2247.128000000001 x5_1_420
   + 2379.312000000001 x5_1_480 + 2511.496000000001 x5_1_540
   + 987.567 x5_2_0 + 1086.3237 x5_2_60 + 1185.0804 x5_2_120
   + 1283.8371 x5_2_180 + 1382.5938 x5_2_240 + 1481.3505 x5_2_300
   + 1580.1072 x5_2_360 + 1678.863900000001 x5_2_420
   + 1777.620600000001 x5_2_480 + 1876.377300000001 x5_2_540
   + 901.139 x6_0_0 + 991.2529000000001 x6_0_60 + 1081.3668 x6_0_120
   + 1171.4807 x6_0_180 + 1261.5946 x6_0_240 + 1351.7085 x6_0_300
   + 1441.8224 x6_0_360 + 1531.9363 x6_0_420 + 1622.0502 x6_0_480
   + 1712.164100000001 x6_0_540 + 1321.84 x6_1_0 + 1454.024 x6_1_60
   + 1586.208 x6_1_120 + 1718.392 x6_1_180 + 1850.576 x6_1_240
   + 1982.76 x6_1_300 + 2114.944 x6_1_360 + 2247.128000000001 x6_1_420
   + 2379.312000000001 x6_1_480 + 2511.496000000001 x6_1_540
   + 987.567 x6_2_0 + 1086.3237 x6_2_60 + 1185.0804 x6_2_120
   + 1283.8371 x6_2_180 + 1382.5938 x6_2_240 + 1481.3505 x6_2_300
   + 1580.1072 x6_2_360 + 1678.863900000001 x6_2_420
   + 1777.620600000001 x6_2_480 + 1876.377300000001 x6_2_540
   + 808.356 x7_0_0 + 889.1916000000001 x7_0_60 + 970.0272 x7_0_120
   + 1050.8628 x7_0_180 + 1131.6984 x7_0_240 + 1212.534 x7_0_300
   + 1293.3696 x7_0_360 + 1374.2052 x7_0_420 + 1455.040800000001 x7_0_480
   + 1535.876400000001 x7_0_540 + 1495.967 x7_1_0 + 1645.5637 x7_1_60
   + 1795.1604 x7_1_120 + 1944.7571 x7_1_180 + 2094.3538 x7_1_240
   + 2243.9505 x7_1_300 + 2393.5472 x7_1_360 + 2543.143900000001 x7_1_420
   + 2692.740600000001 x7_1_480 + 2842.337300000001 x7_1_540
   + 1602.731 x7_2_0 + 1763.0041 x7_2_60 + 1923.2772 x7_2_120
   + 2083.5503 x7_2_180 + 2243.8234 x7_2_240 + 2404.096500000001 x7_2_300
   + 2564.3696 x7_2_360 + 2724.642700000001 x7_2_420
   + 2884.915800000001 x7_2_480 + 3045.188900000001 x7_2_540
   + 901.139 x8_0_0 + 991.2529000000001 x8_0_60 + 1081.3668 x8_0_120
   + 1171.4807 x8_0_180 + 1261.5946 x8_0_240 + 1351.7085 x8_0_300
   + 1441.8224 x8_0_360 + 1531.9363 x8_0_420 + 1622.0502 x8_0_480
   + 1712.164100000001 x8_0_540 + 1321.84 x8_1_0 + 1454.024 x8_1_60
   + 1586.208 x8_1_120 + 1718.392 x8_1_180 + 1850.576 x8_1_240
   + 1982.76 x8_1_300 + 2114.944 x8_1_360 + 2247.128000000001 x8_1_420
   + 2379.312000000001 x8_1_480 + 2511.496000000001 x8_1_540
   + 987.567 x8_2_0 + 1086.3237 x8_2_60 + 1185.0804 x8_2_120
   + 1283.8371 x8_2_180 + 1382.5938 x8_2_240 + 1481.3505 x8_2_300
   + 1580.1072 x8_2_360 + 1678.863900000001 x8_2_420
   + 1777.620600000001 x8_2_480 + 1876.377300000001 x8_2_540
   + 1495.967 x9_0_0 + 1645.5637 x9_0_60 + 1795.1604 x9_0_120
   + 1944.7571 x9_0_180 + 2094.3538 x9_0_240 + 2243.9505 x9_0_300
   + 2393.5472 x9_0_360 + 2543.143900000001 x9_0_420
   + 2692.740600000001 x9_0_480 + 2842.337300000001 x9_0_540
   + 639.313 x9_1_0 + 703.2443000000001 x9_1_60 + 767.1756 x9_1_120
   + 831.1069000000002 x9_1_180 + 895.0382000000002 x9_1_240
   + 958.9695000000003 x9_1_300 + 1022.9008 x9_1_360 + 1086.8321 x9_1_420
   + 1150.763400000001 x9_1_480 + 1214.6947 x9_1_540 + 973.586 x9_2_0
   + 1070.9446 x9_2_60 + 1168.3032 x9_2_120 + 1265.6618 x9_2_180
   + 1363.0204 x9_2_240 + 1460.379 x9_2_300 + 1557.7376 x9_2_360
   + 1655.0962 x9_2_420 + 1752.454800000001 x9_2_480
   + 1849.813400000001 x9_2_540 + 901.139 x10_0_0
   + 991.2529000000001 x10_0_60 + 1081.3668 x10_0_120 + 1171.4807 x10_0_180
   + 1261.5946 x10_0_240 + 1351.7085 x10_0_300 + 1441.8224 x10_0_360
   + 1531.9363 x10_0_420 + 1622.0502 x10_0_480
   + 1712.164100000001 x10_0_540 + 1321.84 x10_1_0 + 1454.024 x10_1_60
   + 1586.208 x10_1_120 + 1718.392 x10_1_180 + 1850.576 x10_1_240
   + 1982.76 x10_1_300 + 2114.944 x10_1_360 + 2247.128000000001 x10_1_420
   + 2379.312000000001 x10_1_480 + 2511.496000000001 x10_1_540
   + 987.567 x10_2_0 + 1086.3237 x10_2_60 + 1185.0804 x10_2_120
   + 1283.8371 x10_2_180 + 1382.5938 x10_2_240 + 1481.3505 x10_2_300
   + 1580.1072 x10_2_360 + 1678.863900000001 x10_2_420
   + 1777.620600000001 x10_2_480 + 1876.377300000001 x10_2_540
   + 1495.967 x11_0_0 + 1645.5637 x11_0_60 + 1795.1604 x11_0_120
   + 1944.7571 x11_0_180 + 2094.3538 x11_0_240 + 2243.9505 x11_0_300
   + 2393.5472 x11_0_360 + 2543.143900000001 x11_0_420
   + 2692.740600000001 x11_0_480 + 2842.337300000001 x11_0_540
   + 639.313 x11_1_0 + 703.2443000000001 x11_1_60 + 767.1756 x11_1_120
   + 831.1069000000002 x11_1_180 + 895.0382000000002 x11_1_240
   + 958.9695000000003 x11_1_300 + 1022.9008 x11_1_360
   + 1086.8321 x11_1_420 + 1150.763400000001 x11_1_480
   + 1214.6947 x11_1_540 + 973.586 x11_2_0 + 1070.9446 x11_2_60
   + 1168.3032 x11_2_120 + 1265.6618 x11_2_180 + 1363.0204 x11_2_240
   + 1460.379 x11_2_300 + 1557.7376 x11_2_360 + 1655.0962 x11_2_420
   + 1752.454800000001 x11_2_480 + 1849.813400000001 x11_2_540
   + 901.139 x12_0_0 + 991.2529000000001 x12_0_60 + 1081.3668 x12_0_120
   + 1171.4807 x12_0_180 + 1261.5946 x12_0_240 + 1351.7085 x12_0_300
   + 1441.8224 x12_0_360 + 1531.9363 x12_0_420 + 1622.0502 x12_0_480
   + 1712.164100000001 x12_0_540 + 1321.84 x12_1_0 + 1454.024 x12_1_60
   + 1586.208 x12_1_120 + 1718.392 x12_1_180 + 1850.576 x12_1_240
   + 1982.76 x12_1_300 + 2114.944 x12_1_360 + 2247.128000000001 x12_1_420
   + 2379.312000000001 x12_1_480 + 2511.496000000001 x12_1_540
   + 987.567 x12_2_0 + 1086.3237 x12_2_60 + 1185.0804 x12_2_120
   + 1283.8371 x12_2_180 + 1382.5938 x12_2_240 + 1481.3505 x12_2_300
   + 1580.1072 x12_2_360 + 1678.863900000001 x12_2_420
   + 1777.620600000001 x12_2_480 + 1876.377300000001 x12_2_540
   + 1495.967 x13_0_0 + 1645.5637 x13_0_60 + 1795.1604 x13_0_120
   + 1944.7571 x13_0_180 + 2094.3538 x13_0_240 + 2243.9505 x13_0_300
   + 2393.5472 x13_0_360 + 2543.143900000001 x13_0_420
   + 2692.740600000001 x13_0_480 + 2842.337300000001 x13_0_540
   + 639.313 x13_1_0 + 703.2443000000001 x13_1_60 + 767.1756 x13_1_120
   + 831.1069000000002 x13_1_180 + 895.0382000000002 x13_1_240
   + 958.9695000000003 x13_1_300 + 1022.9008 x13_1_360
   + 1086.8321 x13_1_420 + 1150.763400000001 x13_1_480
   + 1214.6947 x13_1_540 + 973.586 x13_2_0 + 1070.9446 x13_2_60
   + 1168.3032 x13_2_120 + 1265.6618 x13_2_180 + 1363.0204 x13_2_240
   + 1460.379 x13_2_300 + 1557.7376 x13_2_360 + 1655.0962 x13_2_420
   + 1752.454800000001 x13_2_480 + 1849.813400000001 x13_2_540
   + 901.139 x14_0_0 + 991.2529000000001 x14_0_60 + 1081.3668 x14_0_120
   + 1171.4807 x14_0_180 + 1261.5946 x14_0_240 + 1351.7085 x14_0_300
   + 1441.8224 x14_0_360 + 1531.9363 x14_0_420 + 1622.0502 x14_0_480
   + 1712.164100000001 x14_0_540 + 1321.84 x14_1_0 + 1454.024 x14_1_60
   + 1586.208 x14_1_120 + 1718.392 x14_1_180 + 1850.576 x14_1_240
   + 1982.76 x14_1_300 + 2114.944 x14_1_360 + 2247.128000000001 x14_1_420
   + 2379.312000000001 x14_1_480 + 2511.496000000001 x14_1_540
   + 987.567 x14_2_0 + 1086.3237 x14_2_60 + 1185.0804 x14_2_120
   + 1283.8371 x14_2_180 + 1382.5938 x14_2_240 + 1481.3505 x14_2_300
   + 1580.1072 x14_2_360 + 1678.863900000001 x14_2_420
   + 1777.620600000001 x14_2_480 + 1876.377300000001 x14_2_540
   + 1495.967 x15_0_0 + 1645.5637 x15_0_60 + 1795.1604 x15_0_120
   + 1944.7571 x15_0_180 + 2094.3538 x15_0_240 + 2243.9505 x15_0_300
   + 2393.5472 x15_0_360 + 2543.143900000001 x15_0_420
   + 2692.740600000001 x15_0_480 + 2842.337300000001 x15_0_540
   + 639.313 x15_1_0 + 703.2443000000001 x15_1_60 + 767.1756 x15_1_120
   + 831.1069000000002 x15_1_180 + 895.0382000000002 x15_1_240
   + 958.9695000000003 x15_1_300 + 1022.9008 x15_1_360
   + 1086.8321 x15_1_420 + 1150.763400000001 x15_1_480
   + 1214.6947 x15_1_540 + 973.586 x15_2_0 + 1070.9446 x15_2_60
   + 1168.3032 x15_2_120 + 1265.6618 x15_2_180 + 1363.0204 x15_2_240
   + 1460.379 x15_2_300 + 1557.7376 x15_2_360 + 1655.0962 x15_2_420
   + 1752.454800000001 x15_2_480 + 1849.813400000001 x15_2_540
   + 901.139 x16_0_0 + 991.2529000000001 x16_0_60 + 1081.3668 x16_0_120
   + 1171.4807 x16_0_180 + 1261.5946 x16_0_240 + 1351.7085 x16_0_300
   + 1441.8224 x16_0_360 + 1531.9363 x16_0_420 + 1622.0502 x16_0_480
   + 1712.164100000001 x16_0_540 + 1321.84 x16_1_0 + 1454.024 x16_1_60
   + 1586.208 x16_1_120 + 1718.392 x16_1_180 + 1850.576 x16_1_240
   + 1982.76 x16_1_300 + 2114.944 x16_1_360 + 2247.128000000001 x16_1_420
   + 2379.312000000001 x16_1_480 + 2511.496000000001 x16_1_540
   + 987.567 x16_2_0 + 1086.3237 x16_2_60 + 1185.0804 x16_2_120
   + 1283.8371 x16_2_180 + 1382.5938 x16_2_240 + 1481.3505 x16_2_300
   + 1580.1072 x16_2_360 + 1678.863900000001 x16_2_420
   + 1777.620600000001 x16_2_480 + 1876.377300000001 x16_2_540
   + 901.139 x17_0_0 + 991.2529000000001 x17_0_60 + 1081.3668 x17_0_120
   + 1171.4807 x17_0_180 + 1261.5946 x17_0_240 + 1351.7085 x17_0_300
   + 1441.8224 x17_0_360 + 1531.9363 x17_0_420 + 1622.0502 x17_0_480
   + 1712.164100000001 x17_0_540 + 1321.84 x17_1_0 + 1454.024 x17_1_60
   + 1586.208 x17_1_120 + 1718.392 x17_1_180 + 1850.576 x17_1_240
   + 1982.76 x17_1_300 + 2114.944 x17_1_360 + 2247.128000000001 x17_1_420
   + 2379.312000000001 x17_1_480 + 2511.496000000001 x17_1_540
   + 987.567 x17_2_0 + 1086.3237 x17_2_60 + 1185.0804 x17_2_120
   + 1283.8371 x17_2_180 + 1382.5938 x17_2_240 + 1481.3505 x17_2_300
   + 1580.1072 x17_2_360 + 1678.863900000001 x17_2_420
   + 1777.620600000001 x17_2_480 + 1876.377300000001 x17_2_540
   + 901.139 x18_0_0 + 991.2529000000001 x18_0_60 + 1081.3668 x18_0_120
   + 1171.4807 x18_0_180 + 1261.5946 x18_0_240 + 1351.7085 x18_0_300
   + 1441.8224 x18_0_360 + 1531.9363 x18_0_420 + 1622.0502 x18_0_480
   + 1712.164100000001 x18_0_540 + 1321.84 x18_1_0 + 1454.024 x18_1_60
   + 1586.208 x18_1_120 + 1718.392 x18_1_180 + 1850.576 x18_1_240
   + 1982.76 x18_1_300 + 2114.944 x18_1_360 + 2247.128000000001 x18_1_420
   + 2379.312000000001 x18_1_480 + 2511.496000000001 x18_1_540
   + 987.567 x18_2_0 + 1086.3237 x18_2_60 + 1185.0804 x18_2_120
   + 1283.8371 x18_2_180 + 1382.5938 x18_2_240 + 1481.3505 x18_2_300
   + 1580.1072 x18_2_360 + 1678.863900000001 x18_2_420
   + 1777.620600000001 x18_2_480 + 1876.377300000001 x18_2_540
   + 901.139 x19_0_0 + 991.2529000000001 x19_0_60 + 1081.3668 x19_0_120
   + 1171.4807 x19_0_180 + 1261.5946 x19_0_240 + 1351.7085 x19_0_300
   + 1441.8224 x19_0_360 + 1531.9363 x19_0_420 + 1622.0502 x19_0_480
   + 1712.164100000001 x19_0_540 + 1321.84 x19_1_0 + 1454.024 x19_1_60
   + 1586.208 x19_1_120 + 1718.392 x19_1_180 + 1850.576 x19_1_240
   + 1982.76 x19_1_300 + 2114.944 x19_1_360 + 2247.128000000001 x19_1_420
   + 2379.312000000001 x19_1_480 + 2511.496000000001 x19_1_540
   + 987.567 x19_2_0 + 1086.3237 x19_2_60 + 1185.0804 x19_2_120
   + 1283.8371 x19_2_180 + 1382.5938 x19_2_240 + 1481.3505 x19_2_300
   + 1580.1072 x19_2_360 + 1678.863900000001 x19_2_420
   + 1777.620600000001 x19_2_480 + 1876.377300000001 x19_2_540
Subject To
 flight_0: x0_0_0 + x0_0_60 + x0_0_120 + x0_0_180 + x0_0_240 + x0_0_300
   + x0_0_360 + x0_0_420 + x0_0_480 + x0_0_540 + x0_1_0 + x0_1_60
   + x0_1_120 + x0_1_180 + x0_1_240 + x0_1_300 + x0_1_360 + x0_1_420
   + x0_1_480 + x0_1_540 + x0_2_0 + x0_2_60 + x0_2_120 + x0_2_180
   + x0_2_240 + x0_2_300 + x0_2_360 + x0_2_420 + x0_2_480 + x0_2_540 = 1
 flight_1: x1_0_0 + x1_0_60 + x1_0_120 + x1_0_180 + x1_0_240 + x1_0_300
   + x1_0_360 + x1_0_420 + x1_0_480 + x1_0_540 + x1_1_0 + x1_1_60
   + x1_1_120 + x1_1_180 + x1_1_240 + x1_1_300 + x1_1_360 + x1_1_420
   + x1_1_480 + x1_1_540 + x1_2_0 + x1_2_60 + x1_2_120 + x1_2_180
   + x1_2_240 + x1_2_300 + x1_2_360 + x1_2_420 + x1_2_480 + x1_2_540 = 1
 flight_2: x2_0_0 + x2_0_60 + x2_0_120 + x2_0_180 + x2_0_240 + x2_0_300
   + x2_0_360 + x2_0_420 + x2_0_480 + x2_0_540 + x2_1_0 + x2_1_60
   + x2_1_120 + x2_1_180 + x2_1_240 + x2_1_300 + x2_1_360 + x2_1_420
   + x2_1_480 + x2_1_540 + x2_2_0 + x2_2_60 + x2_2_120 + x2_2_180
   + x2_2_240 + x2_2_300 + x2_2_360 + x2_2_420 + x2_2_480 + x2_2_540 = 1
 flight_3: x3_0_0 + x3_0_60 + x3_0_120 + x3_0_180 + x3_0_240 + x3_0_300
   + x3_0_360 + x3_0_420 + x3_0_480 + x3_0_540 + x3_1_0 + x3_1_60
   + x3_1_120 + x3_1_180 + x3_1_240 + x3_1_300 + x3_1_360 + x3_1_420
   + x3_1_480 + x3_1_540 + x3_2_0 + x3_2_60 + x3_2_120 + x3_2_180
   + x3_2_240 + x3_2_300 + x3_2_360 + x3_2_420 + x3_2_480 + x3_2_540 = 1
 flight_4: x4_0_0 + x4_0_60 + x4_0_120 + x4_0_180 + x4_0_240 + x4_0_300
   + x4_0_360 + x4_0_420 + x4_0_480 + x4_0_540 + x4_1_0 + x4_1_60
   + x4_1_120 + x4_1_180 + x4_1_240 + x4_1_300 + x4_1_360 + x4_1_420
   + x4_1_480 + x4_1_540 + x4_2_0 + x4_2_60 + x4_2_120 + x4_2_180
   + x4_2_240 + x4_2_300 + x4_2_360 + x4_2_420 + x4_2_480 + x4_2_540 = 1
 flight_5: x5_0_0 + x5_0_60 + x5_0_120 + x5_0_180 + x5_0_240 + x5_0_300
   + x5_0_360 + x5_0_420 + x5_0_480 + x5_0_540 + x5_1_0 + x5_1_60
   + x5_1_120 + x5_1_180 + x5_1_240 + x5_1_300 + x5_1_360 + x5_1_420
   + x5_1_480 + x5_1_540 + x5_2_0 + x5_2_60 + x5_2_120 + x5_2_180
   + x5_2_240 + x5_2_300 + x5_2_360 + x5_2_420 + x5_2_480 + x5_2_540 = 1
 flight_6: x6_0_0 + x6_0_60 + x6_0_120 + x6_0_180 + x6_0_240 + x6_0_300
   + x6_0_360 + x6_0_420 + x6_0_480 + x6_0_540 + x6_1_0 + x6_1_60
   + x6_1_120 + x6_1_180 + x6_1_240 + x6_1_300 + x6_1_360 + x6_1_420
   + x6_1_480 + x6_1_540 + x6_2_0 + x6_2_60 + x6_2_120 + x6_2_180
   + x6_2_240 + x6_2_300 + x6_2_360 + x6_2_420 + x6_2_480 + x6_2_540 = 1
 flight_7: x7_0_0 + x7_0_60 + x7_0_120 + x7_0_180 + x7_0_240 + x7_0_300
   + x7_0_360 + x7_0_420 + x7_0_480 + x7_0_540 + x7_1_0 + x7_1_60
   + x7_1_120 + x7_1_180 + x7_1_240 + x7_1_300 + x7_1_360 + x7_1_420
   + x7_1_480 + x7_1_540 + x7_2_0 + x7_2_60 + x7_2_120 + x7_2_180
   + x7_2_240 + x7_2_300 + x7_2_360 + x7_2_420 + x7_2_480 + x7_2_540 = 1
 flight_8: x8_0_0 + x8_0_60 + x8_0_120 + x8_0_180 + x8_0_240 + x8_0_300
   + x8_0_360 + x8_0_420 + x8_0_480 + x8_0_540 + x8_1_0 + x8_1_60
   + x8_1_120 + x8_1_180 + x8_1_240 + x8_1_300 + x8_1_360 + x8_1_420
   + x8_1_480 + x8_1_540 + x8_2_0 + x8_2_60 + x8_2_120 + x8_2_180
   + x8_2_240 + x8_2_300 + x8_2_360 + x8_2_420 + x8_2_480 + x8_2_540 = 1
 flight_9: x9_0_0 + x9_0_60 + x9_0_120 + x9_0_180 + x9_0_240 + x9_0_300
   + x9_0_360 + x9_0_420 + x9_0_480 + x9_0_540 + x9_1_0 + x9_1_60
   + x9_1_120 + x9_1_180 + x9_1_240 + x9_1_300 + x9_1_360 + x9_1_420
   + x9_1_480 + x9_1_540 + x9_2_0 + x9_2_60 + x9_2_120 + x9_2_180
   + x9_2_240 + x9_2_300 + x9_2_360 + x9_2_420 + x9_2_480 + x9_2_540 = 1
 flight_10: x10_0_0 + x10_0_60 + x10_0_120 + x10_0_180 + x10_0_240
   + x10_0_300 + x10_0_360 + x10_0_420 + x10_0_480 + x10_0_540 + x10_1_0
   + x10_1_60 + x10_1_120 + x10_1_180 + x10_1_240 + x10_1_300 + x10_1_360
   + x10_1_420 + x10_1_480 + x10_1_540 + x10_2_0 + x10_2_60 + x10_2_120
   + x10_2_180 + x10_2_240 + x10_2_300 + x10_2_360 + x10_2_420 + x10_2_480
   + x10_2_540 = 1
 flight_11: x11_0_0 + x11_0_60 + x11_0_120 + x11_0_180 + x11_0_240
   + x11_0_300 + x11_0_360 + x11_0_420 + x11_0_480 + x11_0_540 + x11_1_0
   + x11_1_60 + x11_1_120 + x11_1_180 + x11_1_240 + x11_1_300 + x11_1_360
   + x11_1_420 + x11_1_480 + x11_1_540 + x11_2_0 + x11_2_60 + x11_2_120
   + x11_2_180 + x11_2_240 + x11_2_300 + x11_2_360 + x11_2_420 + x11_2_480
   + x11_2_540 = 1
 flight_12: x12_0_0 + x12_0_60 + x12_0_120 + x12_0_180 + x12_0_240
   + x12_0_300 + x12_0_360 + x12_0_420 + x12_0_480 + x12_0_540 + x12_1_0
   + x12_1_60 + x12_1_120 + x12_1_180 + x12_1_240 + x12_1_300 + x12_1_360
   + x12_1_420 + x12_1_480 + x12_1_540 + x12_2_0 + x12_2_60 + x12_2_120
   + x12_2_180 + x12_2_240 + x12_2_300 + x12_2_360 + x12_2_420 + x12_2_480
   + x12_2_540 = 1
 flight_13: x13_0_0 + x13_0_60 + x13_0_120 + x13_0_180 + x13_0_240
   + x13_0_300 + x13_0_360 + x13_0_420 + x13_0_480 + x13_0_540 + x13_1_0
   + x13_1_60 + x13_1_120 + x13_1_180 + x13_1_240 + x13_1_300 + x13_1_360
   + x13_1_420 + x13_1_480 + x13_1_540 + x13_2_0 + x13_2_60 + x13_2_120
   + x13_2_180 + x13_2_240 + x13_2_300 + x13_2_360 + x13_2_420 + x13_2_480
   + x13_2_540 = 1
 flight_14: x14_0_0 + x14_0_60 + x14_0_120 + x14_0_180 + x14_0_240
   + x14_0_300 + x14_0_360 + x14_0_420 + x14_0_480 + x14_0_540 + x14_1_0
   + x14_1_60 + x14_1_120 + x14_1_180 + x14_1_240 + x14_1_300 + x14_1_360
   + x14_1_420 + x14_1_480 + x14_1_540 + x14_2_0 + x14_2_60 + x14_2_120
   + x14_2_180 + x14_2_240 + x14_2_300 + x14_2_360 + x14_2_420 + x14_2_480
   + x14_2_540 = 1
 flight_15: x15_0_0 + x15_0_60 + x15_0_120 + x15_0_180 + x15_0_240
   + x15_0_300 + x15_0_360 + x15_0_420 + x15_0_480 + x15_0_540 + x15_1_0
   + x15_1_60 + x15_1_120 + x15_1_180 + x15_1_240 + x15_1_300 + x15_1_360
   + x15_1_420 + x15_1_480 + x15_1_540 + x15_2_0 + x15_2_60 + x15_2_120
   + x15_2_180 + x15_2_240 + x15_2_300 + x15_2_360 + x15_2_420 + x15_2_480
   + x15_2_540 = 1
 flight_16: x16_0_0 + x16_0_60 + x16_0_120 + x16_0_180 + x16_0_240
   + x16_0_300 + x16_0_360 + x16_0_420 + x16_0_480 + x16_0_540 + x16_1_0
   + x16_1_60 + x16_1_120 + x16_1_180 + x16_1_240 + x16_1_300 + x16_1_360
   + x16_1_420 + x16_1_480 + x16_1_540 + x16_2_0 + x16_2_60 + x16_2_120
   + x16_2_180 + x16_2_240 + x16_2_300 + x16_2_360 + x16_2_420 + x16_2_480
   + x16_2_540 = 1
 flight_17: x17_0_0 + x17_0_60 + x17_0_120 + x17_0_180 + x17_0_240
   + x17_0_300 + x17_0_360 + x17_0_420 + x17_0_480 + x17_0_540 + x17_1_0
   + x17_1_60 + x17_1_120 + x17_1_180 + x17_1_240 + x17_1_300 + x17_1_360
   + x17_1_420 + x17_1_480 + x17_1_540 + x17_2_0 + x17_2_60 + x17_2_120
   + x17_2_180 + x17_2_240 + x17_2_300 + x17_2_360 + x17_2_420 + x17_2_480
   + x17_2_540 = 1
 flight_18: x18_0_0 + x18_0_60 + x18_0_120 + x18_0_180 + x18_0_240
   + x18_0_300 + x18_0_360 + x18_0_420 + x18_0_480 + x18_0_540 + x18_1_0
   + x18_1_60 + x18_1_120 + x18_1_180 + x18_1_240 + x18_1_300 + x18_1_360
   + x18_1_420 + x18_1_480 + x18_1_540 + x18_2_0 + x18_2_60 + x18_2_120
   + x18_2_180 + x18_2_240 + x18_2_300 + x18_2_360 + x18_2_420 + x18_2_480
   + x18_2_540 = 1
 flight_19: x19_0_0 + x19_0_60 + x19_0_120 + x19_0_180 + x19_0_240
   + x19_0_300 + x19_0_360 + x19_0_420 + x19_0_480 + x19_0_540 + x19_1_0
   + x19_1_60 + x19_1_120 + x19_1_180 + x19_1_240 + x19_1_300 + x19_1_360
   + x19_1_420 + x19_1_480 + x19_1_540 + x19_2_0 + x19_2_60 + x19_2_120
   + x19_2_180 + x19_2_240 + x19_2_300 + x19_2_360 + x19_2_420 + x19_2_480
   + x19_2_540 = 1
 AC_sep_f1_f0_r1: x0_1_0 + x1_1_0 <= 1
 AC_sep_f2_f0_r0: x0_0_0 + x2_0_0 <= 1
 AC_sep_f2_f0_r1: x0_1_0 + x2_1_0 <= 1
 AC_sep_f2_f0_r2: x0_2_0 + x2_2_0 <= 1
 AC_sep_f5_f0_r1: x0_1_0 + x5_1_0 <= 1
 AC_sep_f8_f0_r2: x0_2_0 + x8_2_0 <= 1
 AC_sep_f9_f0_r2: x0_2_0 + x9_2_0 <= 1
 AC_sep_f10_f0_r2: x0_2_0 + x10_2_0 <= 1
 AC_sep_f11_f0_r1: x0_1_0 + x11_1_0 <= 1
 AC_sep_f11_f0_r2: x0_2_0 + x11_2_0 <= 1
 AC_sep_f13_f0_r1: x0_1_0 + x13_1_0 <= 1
 AC_sep_f0_f1_r1: x0_1_0 + x1_1_0 <= 1
 AC_sep_f2_f1_r0: x1_0_0 + x2_0_0 <= 1
 AC_sep_f3_f1_r2: x1_2_0 + x3_2_0 <= 1
 AC_sep_f9_f1_r1: x1_1_0 + x9_1_0 <= 1
 AC_sep_f11_f1_r1: x1_1_0 + x11_1_0 <= 1
 AC_sep_f13_f1_r1: x1_1_0 + x13_1_0 <= 1
 AC_sep_f0_f2_r0: x0_0_0 + x2_0_0 <= 1
 AC_sep_f0_f2_r1: x0_1_0 + x2_1_0 <= 1
 AC_sep_f0_f2_r2: x0_2_0 + x2_2_0 <= 1
 AC_sep_f1_f2_r0: x1_0_0 + x2_0_0 <= 1
 AC_sep_f5_f2_r1: x2_1_0 + x5_1_0 <= 1
 AC_sep_f6_f2_r1: x2_1_0 + x6_1_0 <= 1
 AC_sep_f9_f2_r2: x2_2_0 + x9_2_0 <= 1
 AC_sep_f10_f2_r2: x2_2_0 + x10_2_0 <= 1
 AC_sep_f11_f2_r2: x2_2_0 + x11_2_0 <= 1
 AC_sep_f12_f2_r2: x2_2_0 + x12_2_0 <= 1
 AC_sep_f13_f2_r1: x2_1_0 + x13_1_0 <= 1
 AC_sep_f13_f2_r2: x2_2_0 + x13_2_0 <= 1
 AC_sep_f15_f2_r1: x2_1_0 + x15_1_0 <= 1
 AC_sep_f1_f3_r2: x1_2_0 + x3_2_0 <= 1
 AC_sep_f4_f3_r0: x3_0_0 + x4_0_0 <= 1
 AC_sep_f4_f3_r1: x3_1_0 + x4_1_0 <= 1
 AC_sep_f4_f3_r2: x3_2_0 + x4_2_0 <= 1
 AC_sep_f5_f3_r2: x3_2_0 + x5_2_0 <= 1
 AC_sep_f10_f3_r0: x3_0_0 + x10_0_0 <= 1
 AC_sep_f12_f3_r0: x3_0_0 + x12_0_0 <= 1
 AC_sep_f3_f4_r0: x3_0_0 + x4_0_0 <= 1
 AC_sep_f3_f4_r1: x3_1_0 + x4_1_0 <= 1
 AC_sep_f3_f4_r2: x3_2_0 + x4_2_0 <= 1
 AC_sep_f5_f4_r2: x4_2_0 + x5_2_0 <= 1
 AC_sep_f6_f4_r2: x4_2_0 + x6_2_0 <= 1
 AC_sep_f10_f4_r0: x4_0_0 + x10_0_0 <= 1
 AC_sep_f12_f4_r0: x4_0_0 + x12_0_0 <= 1
 AC_sep_f14_f4_r0: x4_0_0 + x14_0_0 <= 1
 AC_sep_f0_f5_r1: x0_1_0 + x5_1_0 <= 1
 AC_sep_f2_f5_r1: x2_1_0 + x5_1_0 <= 1
 AC_sep_f3_f5_r2: x3_2_0 + x5_2_0 <= 1
 AC_sep_f4_f5_r2: x4_2_0 + x5_2_0 <= 1
 AC_sep_f6_f5_r0: x5_0_0 + x6_0_0 <= 1
 AC_sep_f6_f5_r1: x5_1_0 + x6_1_0 <= 1
 AC_sep_f6_f5_r2: x5_2_0 + x6_2_0 <= 1
 AC_sep_f7_f5_r0: x5_0_0 + x7_0_0 <= 1
 AC_sep_f13_f5_r1: x5_1_0 + x13_1_0 <= 1
 AC_sep_f15_f5_r1: x5_1_0 + x15_1_0 <= 1
 AC_sep_f2_f6_r1: x2_1_0 + x6_1_0 <= 1
 AC_sep_f4_f6_r2: x4_2_0 + x6_2_0 <= 1
 AC_sep_f5_f6_r0: x5_0_0 + x6_0_0 <= 1
 AC_sep_f5_f6_r1: x5_1_0 + x6_1_0 <= 1
 AC_sep_f5_f6_r2: x5_2_0 + x6_2_0 <= 1
 AC_sep_f7_f6_r0: x6_0_0 + x7_0_0 <= 1
 AC_sep_f15_f6_r1: x6_1_0 + x15_1_0 <= 1
 AC_sep_f5_f7_r0: x5_0_0 + x7_0_0 <= 1
 AC_sep_f6_f7_r0: x6_0_0 + x7_0_0 <= 1
 AC_sep_f8_f7_r1: x7_1_0 + x8_1_0 <= 1
 AC_sep_f10_f7_r1: x7_1_0 + x10_1_0 <= 1
 AC_sep_f14_f7_r2: x7_2_0 + x14_2_0 <= 1
 AC_sep_f15_f7_r2: x7_2_0 + x15_2_0 <= 1
 AC_sep_f16_f7_r2: x7_2_0 + x16_2_0 <= 1
 AC_sep_f0_f8_r2: x0_2_0 + x8_2_0 <= 1
 AC_sep_f7_f8_r1: x7_1_0 + x8_1_0 <= 1
 AC_sep_f9_f8_r2: x8_2_0 + x9_2_0 <= 1
 AC_sep_f0_f9_r2: x0_2_0 + x9_2_0 <= 1
 AC_sep_f1_f9_r1: x1_1_0 + x9_1_0 <= 1
 AC_sep_f2_f9_r2: x2_2_0 + x9_2_0 <= 1
 AC_sep_f8_f9_r2: x8_2_0 + x9_2_0 <= 1
 AC_sep_f10_f9_r2: x9_2_0 + x10_2_0 <= 1
 AC_sep_f11_f9_r0: x9_0_0 + x11_0_0 <= 1
 AC_sep_f11_f9_r1: x9_1_0 + x11_1_0 <= 1
 AC_sep_f11_f9_r2: x9_2_0 + x11_2_0 <= 1
 AC_sep_f16_f9_r0: x9_0_0 + x16_0_0 <= 1
 AC_sep_f17_f9_r0: x9_0_0 + x17_0_0 <= 1
 AC_sep_f18_f9_r0: x9_0_0 + x18_0_0 <= 1
 AC_sep_f19_f9_r0: x9_0_0 + x19_0_0 <= 1
 AC_sep_f0_f10_r2: x0_2_0 + x10_2_0 <= 1
 AC_sep_f2_f10_r2: x2_2_0 + x10_2_0 <= 1
 AC_sep_f3_f10_r0: x3_0_0 + x10_0_0 <= 1
 AC_sep_f4_f10_r0: x4_0_0 + x10_0_0 <= 1
 AC_sep_f7_f10_r1: x7_1_0 + x10_1_0 <= 1
 AC_sep_f9_f10_r2: x9_2_0 + x10_2_0 <= 1
 AC_sep_f11_f10_r2: x10_2_0 + x11_2_0 <= 1
 AC_sep_f12_f10_r0: x10_0_0 + x12_0_0 <= 1
 AC_sep_f12_f10_r1: x10_1_0 + x12_1_0 <= 1
 AC_sep_f12_f10_r2: x10_2_0 + x12_2_0 <= 1
 AC_sep_f13_f10_r2: x10_2_0 + x13_2_0 <= 1
 AC_sep_f0_f11_r1: x0_1_0 + x11_1_0 <= 1
 AC_sep_f0_f11_r2: x0_2_0 + x11_2_0 <= 1
 AC_sep_f1_f11_r1: x1_1_0 + x11_1_0 <= 1
 AC_sep_f2_f11_r2: x2_2_0 + x11_2_0 <= 1
 AC_sep_f9_f11_r0: x9_0_0 + x11_0_0 <= 1
 AC_sep_f9_f11_r1: x9_1_0 + x11_1_0 <= 1
 AC_sep_f9_f11_r2: x9_2_0 + x11_2_0 <= 1
 AC_sep_f10_f11_r2: x10_2_0 + x11_2_0 <= 1
 AC_sep_f12_f11_r2: x11_2_0 + x12_2_0 <= 1
 AC_sep_f13_f11_r0: x11_0_0 + x13_0_0 <= 1
 AC_sep_f13_f11_r1: x11_1_0 + x13_1_0 <= 1
 AC_sep_f13_f11_r2: x11_2_0 + x13_2_0 <= 1
 AC_sep_f17_f11_r0: x11_0_0 + x17_0_0 <= 1
 AC_sep_f18_f11_r0: x11_0_0 + x18_0_0 <= 1
 AC_sep_f19_f11_r0: x11_0_0 + x19_0_0 <= 1
 AC_sep_f2_f12_r2: x2_2_0 + x12_2_0 <= 1
 AC_sep_f3_f12_r0: x3_0_0 + x12_0_0 <= 1
 AC_sep_f4_f12_r0: x4_0_0 + x12_0_0 <= 1
 AC_sep_f10_f12_r0: x10_0_0 + x12_0_0 <= 1
 AC_sep_f10_f12_r1: x10_1_0 + x12_1_0 <= 1
 AC_sep_f10_f12_r2: x10_2_0 + x12_2_0 <= 1
 AC_sep_f11_f12_r2: x11_2_0 + x12_2_0 <= 1
 AC_sep_f13_f12_r2: x12_2_0 + x13_2_0 <= 1
 AC_sep_f0_f13_r1: x0_1_0 + x13_1_0 <= 1
 AC_sep_f1_f13_r1: x1_1_0 + x13_1_0 <= 1
 AC_sep_f2_f13_r1: x2_1_0 + x13_1_0 <= 1
 AC_sep_f2_f13_r2: x2_2_0 + x13_2_0 <= 1
 AC_sep_f5_f13_r1: x5_1_0 + x13_1_0 <= 1
 AC_sep_f10_f13_r2: x10_2_0 + x13_2_0 <= 1
 AC_sep_f11_f13_r0: x11_0_0 + x13_0_0 <= 1
 AC_sep_f11_f13_r1: x11_1_0 + x13_1_0 <= 1
 AC_sep_f11_f13_r2: x11_2_0 + x13_2_0 <= 1
 AC_sep_f12_f13_r2: x12_2_0 + x13_2_0 <= 1
 AC_sep_f14_f13_r2: x13_2_0 + x14_2_0 <= 1
 AC_sep_f19_f13_r0: x13_0_0 + x19_0_0 <= 1
 AC_sep_f4_f14_r0: x4_0_0 + x14_0_0 <= 1
 AC_sep_f7_f14_r2: x7_2_0 + x14_2_0 <= 1
 AC_sep_f13_f14_r2: x13_2_0 + x14_2_0 <= 1
 AC_sep_f15_f14_r2: x14_2_0 + x15_2_0 <= 1
 AC_sep_f2_f15_r1: x2_1_0 + x15_1_0 <= 1
 AC_sep_f5_f15_r1: x5_1_0 + x15_1_0 <= 1
 AC_sep_f6_f15_r1: x6_1_0 + x15_1_0 <= 1
 AC_sep_f7_f15_r2: x7_2_0 + x15_2_0 <= 1
 AC_sep_f14_f15_r2: x14_2_0 + x15_2_0 <= 1
 AC_sep_f16_f15_r2: x15_2_0 + x16_2_0 <= 1
 AC_sep_f7_f16_r2: x7_2_0 + x16_2_0 <= 1
 AC_sep_f9_f16_r0: x9_0_0 + x16_0_0 <= 1
 AC_sep_f15_f16_r2: x15_2_0 + x16_2_0 <= 1
 AC_sep_f17_f16_r0: x16_0_0 + x17_0_0 <= 1
 AC_sep_f17_f16_r1: x16_1_0 + x17_1_0 <= 1
 AC_sep_f17_f16_r2: x16_2_0 + x17_2_0 <= 1
 AC_sep_f18_f16_r0: x16_0_0 + x18_0_0 <= 1
 AC_sep_f18_f16_r1: x16_1_0 + x18_1_0 <= 1
 AC_sep_f18_f16_r2: x16_2_0 + x18_2_0 <= 1
 AC_sep_f9_f17_r0: x9_0_0 + x17_0_0 <= 1
 AC_sep_f11_f17_r0: x11_0_0 + x17_0_0 <= 1
 AC_sep_f16_f17_r0: x16_0_0 + x17_0_0 <= 1
 AC_sep_f16_f17_r1: x16_1_0 + x17_1_0 <= 1
 AC_sep_f16_f17_r2: x16_2_0 + x17_2_0 <= 1
 AC_sep_f18_f17_r0: x17_0_0 + x18_0_0 <= 1
 AC_sep_f18_f17_r1: x17_1_0 + x18_1_0 <= 1
 AC_sep_f18_f17_r2: x17_2_0 + x18_2_0 <= 1
 AC_sep_f19_f17_r0: x17_0_0 + x19_0_0 <= 1
 AC_sep_f19_f17_r1: x17_1_0 + x19_1_0 <= 1
 AC_sep_f19_f17_r2: x17_2_0 + x19_2_0 <= 1
 AC_sep_f9_f18_r0: x9_0_0 + x18_0_0 <= 1
 AC_sep_f11_f18_r0: x11_0_0 + x18_0_0 <= 1
 AC_sep_f16_f18_r0: x16_0_0 + x18_0_0 <= 1
 AC_sep_f16_f18_r1: x16_1_0 + x18_1_0 <= 1
 AC_sep_f16_f18_r2: x16_2_0 + x18_2_0 <= 1
 AC_sep_f17_f18_r0: x17_0_0 + x18_0_0 <= 1
 AC_sep_f17_f18_r1: x17_1_0 + x18_1_0 <= 1
 AC_sep_f17_f18_r2: x17_2_0 + x18_2_0 <= 1
 AC_sep_f19_f18_r0: x18_0_0 + x19_0_0 <= 1
 AC_sep_f19_f18_r1: x18_1_0 + x19_1_0 <= 1
 AC_sep_f19_f18_r2: x18_2_0 + x19_2_0 <= 1
 AC_sep_f9_f19_r0: x9_0_0 + x19_0_0 <= 1
 AC_sep_f11_f19_r0: x11_0_0 + x19_0_0 <= 1
 AC_sep_f13_f19_r0: x13_0_0 + x19_0_0 <= 1
 AC_sep_f17_f19_r0: x17_0_0 + x19_0_0 <= 1
 AC_sep_f17_f19_r1: x17_1_0 + x19_1_0 <= 1
 AC_sep_f17_f19_r2: x17_2_0 + x19_2_0 <= 1
 AC_sep_f18_f19_r0: x18_0_0 + x19_0_0 <= 1
 AC_sep_f18_f19_r1: x18_1_0 + x19_1_0 <= 1
 AC_sep_f18_f19_r2: x18_2_0 + x19_2_0 <= 1
Bounds
Binaries
 x0_0_0 x0_0_60 x0_0_120 x0_0_180 x0_0_240 x0_0_300 x0_0_360 x0_0_420
 x0_0_480 x0_0_540 x0_1_0 x0_1_60 x0_1_120 x0_1_180 x0_1_240 x0_1_300
 x0_1_360 x0_1_420 x0_1_480 x0_1_540 x0_2_0 x0_2_60 x0_2_120 x0_2_180
 x0_2_240 x0_2_300 x0_2_360 x0_2_420 x0_2_480 x0_2_540 x1_0_0 x1_0_60
 x1_0_120 x1_0_180 x1_0_240 x1_0_300 x1_0_360 x1_0_420 x1_0_480 x1_0_540
 x1_1_0 x1_1_60 x1_1_120 x1_1_180 x1_1_240 x1_1_300 x1_1_360 x1_1_420
 x1_1_480 x1_1_540 x1_2_0 x1_2_60 x1_2_120 x1_2_180 x1_2_240 x1_2_300
 x1_2_360 x1_2_420 x1_2_480 x1_2_540 x2_0_0 x2_0_60 x2_0_120 x2_0_180
 x2_0_240 x2_0_300 x2_0_360 x2_0_420 x2_0_480 x2_0_540 x2_1_0 x2_1_60
 x2_1_120 x2_1_180 x2_1_240 x2_1_300 x2_1_360 x2_1_420 x2_1_480 x2_1_540
 x2_2_0 x2_2_60 x2_2_120 x2_2_180 x2_2_240 x2_2_300 x2_2_360 x2_2_420
 x2_2_480 x2_2_540 x3_0_0 x3_0_60 x3_0_120 x3_0_180 x3_0_240 x3_0_300
 x3_0_360 x3_0_420 x3_0_480 x3_0_540 x3_1_0 x3_1_60 x3_1_120 x3_1_180
 x3_1_240 x3_1_300 x3_1_360 x3_1_420 x3_1_480 x3_1_540 x3_2_0 x3_2_60
 x3_2_120 x3_2_180 x3_2_240 x3_2_300 x3_2_360 x3_2_420 x3_2_480 x3_2_540
 x4_0_0 x4_0_60 x4_0_120 x4_0_180 x4_0_240 x4_0_300 x4_0_360 x4_0_420
 x4_0_480 x4_0_540 x4_1_0 x4_1_60 x4_1_120 x4_1_180 x4_1_240 x4_1_300
 x4_1_360 x4_1_420 x4_1_480 x4_1_540 x4_2_0 x4_2_60 x4_2_120 x4_2_180
 x4_2_240 x4_2_300 x4_2_360 x4_2_420 x4_2_480 x4_2_540 x5_0_0 x5_0_60
 x5_0_120 x5_0_180 x5_0_240 x5_0_300 x5_0_360 x5_0_420 x5_0_480 x5_0_540
 x5_1_0 x5_1_60 x5_1_120 x5_1_180 x5_1_240 x5_1_300 x5_1_360 x5_1_420
 x5_1_480 x5_1_540 x5_2_0 x5_2_60 x5_2_120 x5_2_180 x5_2_240 x5_2_300
 x5_2_360 x5_2_420 x5_2_480 x5_2_540 x6_0_0 x6_0_60 x6_0_120 x6_0_180
 x6_0_240 x6_0_300 x6_0_360 x6_0_420 x6_0_480 x6_0_540 x6_1_0 x6_1_60
 x6_1_120 x6_1_180 x6_1_240 x6_1_300 x6_1_360 x6_1_420 x6_1_480 x6_1_540
 x6_2_0 x6_2_60 x6_2_120 x6_2_180 x6_2_240 x6_2_300 x6_2_360 x6_2_420
 x6_2_480 x6_2_540 x7_0_0 x7_0_60 x7_0_120 x7_0_180 x7_0_240 x7_0_300
 x7_0_360 x7_0_420 x7_0_480 x7_0_540 x7_1_0 x7_1_60 x7_1_120 x7_1_180
 x7_1_240 x7_1_300 x7_1_360 x7_1_420 x7_1_480 x7_1_540 x7_2_0 x7_2_60
 x7_2_120 x7_2_180 x7_2_240 x7_2_300 x7_2_360 x7_2_420 x7_2_480 x7_2_540
 x8_0_0 x8_0_60 x8_0_120 x8_0_180 x8_0_240 x8_0_300 x8_0_360 x8_0_420
 x8_0_480 x8_0_540 x8_1_0 x8_1_60 x8_1_120 x8_1_180 x8_1_240 x8_1_300
 x8_1_360 x8_1_420 x8_1_480 x8_1_540 x8_2_0 x8_2_60 x8_2_120 x8_2_180
 x8_2_240 x8_2_300 x8_2_360 x8_2_420 x8_2_480 x8_2_540 x9_0_0 x9_0_60
 x9_0_120 x9_0_180 x9_0_240 x9_0_300 x9_0_360 x9_0_420 x9_0_480 x9_0_540
 x9_1_0 x9_1_60 x9_1_120 x9_1_180 x9_1_240 x9_1_300 x9_1_360 x9_1_420
 x9_1_480 x9_1_540 x9_2_0 x9_2_60 x9_2_120 x9_2_180 x9_2_240 x9_2_300
 x9_2_360 x9_2_420 x9_2_480 x9_2_540 x10_0_0 x10_0_60 x10_0_120 x10_0_180
 x10_0_240 x10_0_300 x10_0_360 x10_0_420 x10_0_480 x10_0_540 x10_1_0
 x10_1_60 x10_1_120 x10_1_180 x10_1_240 x10_1_300 x10_1_360 x10_1_420
 x10_1_480 x10_1_540 x10_2_0 x10_2_60 x10_2_120 x10_2_180 x10_2_240
 x10_2_300 x10_2_360 x10_2_420 x10_2_480 x10_2_540 x11_0_0 x11_0_60
 x11_0_120 x11_0_180 x11_0_240 x11_0_300 x11_0_360 x11_0_420 x11_0_480
 x11_0_540 x11_1_0 x11_1_60 x11_1_120 x11_1_180 x11_1_240 x11_1_300
 x11_1_360 x11_1_420 x11_1_480 x11_1_540 x11_2_0 x11_2_60 x11_2_120
 x11_2_180 x11_2_240 x11_2_300 x11_2_360 x11_2_420 x11_2_480 x11_2_540
 x12_0_0 x12_0_60 x12_0_120 x12_0_180 x12_0_240 x12_0_300 x12_0_360
 x12_0_420 x12_0_480 x12_0_540 x12_1_0 x12_1_60 x12_1_120 x12_1_180
 x12_1_240 x12_1_300 x12_1_360 x12_1_420 x12_1_480 x12_1_540 x12_2_0
 x12_2_60 x12_2_120 x12_2_180 x12_2_240 x12_2_300 x12_2_360 x12_2_420
 x12_2_480 x12_2_540 x13_0_0 x13_0_60 x13_0_120 x13_0_180 x13_0_240
 x13_0_300 x13_0_360 x13_0_420 x13_0_480 x13_0_540 x13_1_0 x13_1_60
 x13_1_120 x13_1_180 x13_1_240 x13_1_300 x13_1_360 x13_1_420 x13_1_480
 x13_1_540 x13_2_0 x13_2_60 x13_2_120 x13_2_180 x13_2_240 x13_2_300
 x13_2_360 x13_2_420 x13_2_480 x13_2_540 x14_0_0 x14_0_60 x14_0_120
 x14_0_180 x14_0_240 x14_0_300 x14_0_360 x14_0_420 x14_0_480 x14_0_540
 x14_1_0 x14_1_60 x14_1_120 x14_1_180 x14_1_240 x14_1_300 x14_1_360
 x14_1_420 x14_1_480 x14_1_540 x14_2_0 x14_2_60 x14_2_120 x14_2_180
 x14_2_240 x14_2_300 x14_2_360 x14_2_420 x14_2_480 x14_2_540 x15_0_0
 x15_0_60 x15_0_120 x15_0_180 x15_0_240 x15_0_300 x15_0_360 x15_0_420
 x15_0_480 x15_0_540 x15_1_0 x15_1_60 x15_1_120 x15_1_180 x15_1_240
 x15_1_300 x15_1_360 x15_1_420 x15_1_480 x15_1_540 x15_2_0 x15_2_60
 x15_2_120 x15_2_180 x15_2_240 x15_2_300 x15_2_360 x15_2_420 x15_2_480
 x15_2_540 x16_0_0 x16_0_60 x16_0_120 x16_0_180 x16_0_240 x16_0_300
 x16_0_360 x16_0_420 x16_0_480 x16_0_540 x16_1_0 x16_1_60 x16_1_120
 x16_1_180 x16_1_240 x16_1_300 x16_1_360 x16_1_420 x16_1_480 x16_1_540
 x16_2_0 x16_2_60 x16_2_120 x16_2_180 x16_2_240 x16_2_300 x16_2_360
 x16_2_420 x16_2_480 x16_2_540 x17_0_0 x17_0_60 x17_0_120 x17_0_180
 x17_0_240 x17_0_300 x17_0_360 x17_0_420 x17_0_480 x17_0_540 x17_1_0
 x17_1_60 x17_1_120 x17_1_180 x17_1_240 x17_1_300 x17_1_360 x17_1_420
 x17_1_480 x17_1_540 x17_2_0 x17_2_60 x17_2_120 x17_2_180 x17_2_240
 x17_2_300 x17_2_360 x17_2_420 x17_2_480 x17_2_540 x18_0_0 x18_0_60
 x18_0_120 x18_0_180 x18_0_240 x18_0_300 x18_0_360 x18_0_420 x18_0_480
 x18_0_540 x18_1_0 x18_1_60 x18_1_120 x18_1_180 x18_1_240 x18_1_300
 x18_1_360 x18_1_420 x18_1_480 x18_1_540 x18_2_0 x18_2_60 x18_2_120
 x18_2_180 x18_2_240 x18_2_300 x18_2_360 x18_2_420 x18_2_480 x18_2_540
 x19_0_0 x19_0_60 x19_0_120 x19_0_180 x19_0_240 x19_0_300 x19_0_360
 x19_0_420 x19_0_480 x19_0_540 x19_1_0 x19_1_60 x19_1_120 x19_1_180
 x19_1_240 x19_1_300 x19_1_360 x19_1_420 x19_1_480 x19_1_540 x19_2_0
 x19_2_60 x19_2_120 x19_2_180 x19_2_240 x19_2_300 x19_2_360 x19_2_420
 x19_2_480 x19_2_540
End
